85
32
90
78
33
58
9
49
29
36
14
94
73
28
57
98
17
6
53
23
88
56
84
91
55
16
70
44
42
2
51
61
19
43
50
35
22
63
66
30
71
41
93
4
38
82
27
96
62
97
89
1
18
76
34
13
54
31
47
64
92
25
86
20
69
7
75
80
60
72
79
0
24
37
5
12
52
46
99
3
26
87
67
59
95
65
11
77
40
10
15
68
39
21
74
48
83
81
45
8
